Ga  O                                   
   1.00000000000000     
    12.5024951669685613    0.0000000000000000    0.0010761831852167
     0.0000000000000000    3.1002602120016878    0.0000000000000000
    -1.4036800577536772    0.0000000000000000    5.7458142223261701
   Ga   O 
     8    12
Direct
  0.9093601238387162 -0.0000000000000000  0.2040343756953169
  0.0906398761612836 -0.0000000000000000  0.7959656243046830
  0.4093601238387162  0.5000000000000000  0.2040343756953169
  0.5906398761612838  0.5000000000000000  0.7959656243046830
  0.6591939931692693 -0.0000000000000000  0.3164036674927320
  0.3408060068307309 -0.0000000000000000  0.6835963325072676
  0.1591939931692690  0.5000000000000000  0.3164036674927320
  0.8408060068307307  0.5000000000000000  0.6835963325072676
  0.8341236558501606 -0.0000000000000000  0.8886839373758344
  0.1658763441498396  0.0000000000000000  0.1113160626241655
  0.3341236558501604  0.5000000000000000  0.8886839373758344
  0.6658763441498394  0.5000000000000000  0.1113160626241655
  0.5033192766965325  0.0000000000000000  0.7437144474954640
  0.4966807233034678 -0.0000000000000000  0.2562855525045361
  0.0033192766965326  0.5000000000000000  0.7437144474954640
  0.9966807233034676  0.5000000000000000  0.2562855525045361
  0.1734661511706576  0.0000000000000000  0.5615611718624146
  0.8265338488293429  0.0000000000000000  0.4384388281375857
  0.6734661511706571  0.5000000000000000  0.5615611718624146
  0.3265338488293426  0.5000000000000000  0.4384388281375857
 
  0.00000000E+00  0.00000000E+00  0.00000000E+00
  0.00000000E+00  0.00000000E+00  0.00000000E+00
  0.00000000E+00  0.00000000E+00  0.00000000E+00
  0.00000000E+00  0.00000000E+00  0.00000000E+00
  0.00000000E+00  0.00000000E+00  0.00000000E+00
  0.00000000E+00  0.00000000E+00  0.00000000E+00
  0.00000000E+00  0.00000000E+00  0.00000000E+00
  0.00000000E+00  0.00000000E+00  0.00000000E+00
  0.00000000E+00  0.00000000E+00  0.00000000E+00
  0.00000000E+00  0.00000000E+00  0.00000000E+00
  0.00000000E+00  0.00000000E+00  0.00000000E+00
  0.00000000E+00  0.00000000E+00  0.00000000E+00
  0.00000000E+00  0.00000000E+00  0.00000000E+00
  0.00000000E+00  0.00000000E+00  0.00000000E+00
  0.00000000E+00  0.00000000E+00  0.00000000E+00
  0.00000000E+00  0.00000000E+00  0.00000000E+00
  0.00000000E+00  0.00000000E+00  0.00000000E+00
  0.00000000E+00  0.00000000E+00  0.00000000E+00
  0.00000000E+00  0.00000000E+00  0.00000000E+00
  0.00000000E+00  0.00000000E+00  0.00000000E+00
