O2                                      
   10.0000000000000     
     1.0000000000000000    0.0000000000000000    0.0000000000000000
     0.0000000000000000    1.0200000000000000    0.0000000000000000
     0.0000000000000000    0.0000000000000000    1.0100000000000000
   O 
     2
Direct
  0.5617260679891016  0.5000000000000000  0.5000000000000000
  0.4382739320108985  0.5000000000000000  0.5000000000000000
 
  0.00000000E+00  0.00000000E+00  0.00000000E+00
  0.00000000E+00  0.00000000E+00  0.00000000E+00
