Ga  O                                   
   1.00000000000000     
    12.2623767853000007    0.0000000000000000    0.0000000000000000
     0.0000000000000000    9.1133460998999993    0.0000000000000000
    -2.7796338498000002    0.0000000000000000   11.2793251325000004
   Ga   O 
    48    72
Direct
  0.0923967114218329  0.0000000000000000  0.3983765586130372
  0.0923967281035715  0.0000000000000000  0.8983766588628295
  0.0923967114218329  0.3333333507473526  0.3983765586130372
  0.0923967281035715  0.3333333507473526  0.8983766588628295
  0.0923967114218329  0.6666667014947052  0.3983765586130372
  0.0923967281035715  0.6666667014947052  0.8983766588628295
  0.9076032957473448  0.0000000000000000  0.1016234569685685
  0.9076033514834823  0.0000000000000000  0.6016234726388281
  0.9076032957473448  0.3333333507473526  0.1016234569685685
  0.9076033514834823  0.3333333507473526  0.6016234726388281
  0.9076032957473448  0.6666667014947052  0.1016234569685685
  0.9076033514834823  0.6666667014947052  0.6016234726388281
  0.5923966822553890  0.1666666753736763  0.3983765586130372
  0.5923966795281554  0.1666666753736763  0.8983766588628295
  0.5923966822553890  0.5000000000054854  0.3983765586130372
  0.5923966795281554  0.5000000000054854  0.8983766588628295
  0.5923966822553890  0.8333333507528380  0.3983765586130372
  0.5923966795281554  0.8333333507528380  0.8983766588628295
  0.4076033346182739  0.1666666753736763  0.1016234569685685
  0.4076033126370162  0.1666666753736763  0.6016234726388281
  0.4076033346182739  0.5000000000054854  0.1016234569685685
  0.4076033126370162  0.5000000000054854  0.6016234726388281
  0.4076033346182739  0.8333333507528380  0.1016234569685685
  0.4076033126370162  0.8333333507528380  0.6016234726388281
  0.3397211863797947  0.0000000000000000  0.3427261489974101
  0.3397211885905774  0.0000000000000000  0.8427261857682311
  0.3397211863797947  0.3333333507473526  0.3427261489974101
  0.3397211885905774  0.3333333507473526  0.8427261857682311
  0.3397211863797947  0.6666667014947052  0.3427261489974101
  0.3397211885905774  0.6666667014947052  0.8427261857682311
  0.6602788329054929  0.0000000000000000  0.1572738772231304
  0.6602788133973290 -0.0000000000000000  0.6572739034436708
  0.6602788329054929  0.3333333507473526  0.1572738772231304
  0.6602788133973290  0.3333333507473526  0.6572739034436708
  0.6602788329054929  0.6666667014947052  0.1572738772231304
  0.6602788133973290  0.6666667014947052  0.6572739034436708
  0.8397211475088655  0.1666666753736763  0.3427261489974101
  0.8397212080280783  0.1666666753736763  0.8427261857682311
  0.8397211475088655  0.5000000000054854  0.3427261489974101
  0.8397212080280783  0.5000000000054854  0.8427261857682311
  0.8397211475088655  0.8333333507528380  0.3427261489974101
  0.8397212080280783  0.8333333507528380  0.8427261857682311
  0.1602788329585000  0.1666666753736763  0.1572738772231304
  0.1602788425637801  0.1666666753736763  0.6572739034436708
  0.1602788329585000  0.5000000000054854  0.1572738772231304
  0.1602788425637801  0.5000000000054854  0.6572739034436708
  0.1602788329585000  0.8333333507528380  0.1572738772231304
  0.1602788425637801  0.8333333507528380  0.6572739034436708
  0.1732950538056423 -0.0000000000000000  0.0552430776268375
  0.1732950596953239  0.0000000000000000  0.5552431302673964
  0.1732950538056423  0.3333333507473526  0.0552430776268375
  0.1732950596953239  0.3333333507473526  0.5552431302673964
  0.1732950538056423  0.6666667014947052  0.0552430776268375
  0.1732950596953239  0.6666667014947052  0.5552431302673964
  0.8267049642738343  0.0000000000000000  0.4447569432742314
  0.8267049518788213 -0.0000000000000000  0.9447570012342612
  0.8267049642738343  0.3333333507473526  0.4447569432742314
  0.8267049518788213  0.3333333507473526  0.9447570012342612
  0.8267049642738343  0.6666667014947052  0.4447569432742314
  0.8267049518788213  0.6666667014947052  0.9447570012342612
  0.6732950538341839  0.1666666753736763  0.0552430776268375
  0.6732950791328235  0.1666666753736763  0.5552431302673964
  0.6732950538341839  0.5000000000054854  0.0552430776268375
  0.6732950791328235  0.5000000000054854  0.5552431302673964
  0.6732950538341839  0.8333333507528380  0.0552430776268375
  0.6732950791328235  0.8333333507528380  0.5552431302673964
  0.3267049643268399  0.1666666753736763  0.4447569432742314
  0.3267049713407849  0.1666666753736763  0.9447570012342612
  0.3267049643268399  0.5000000000054854  0.4447569432742314
  0.3267049713407849  0.5000000000054854  0.9447570012342612
  0.3267049643268399  0.8333333507528380  0.4447569432742314
  0.3267049713407849  0.8333333507528380  0.9447570012342612
  0.4974946953800877 -0.0000000000000000  0.1260702719681707
  0.4974947098866703  0.0000000000000000  0.6260702769995027
  0.4974946953800877  0.3333333507473526  0.1260702719681707
  0.4974947098866703  0.3333333507473526  0.6260702769995027
  0.4974946953800877  0.6666667014947052  0.1260702719681707
  0.4974947098866703  0.6666667014947052  0.6260702769995027
  0.5025053239052073  0.0000000000000000  0.3739297542523696
  0.5025053213329147 -0.0000000000000000  0.8739297699226293
  0.5025053239052073  0.3333333507473526  0.3739297542523696
  0.5025053213329147  0.3333333507473526  0.8739297699226293
  0.5025053239052073  0.6666667014947052  0.3739297542523696
  0.5025053213329147  0.6666667014947052  0.8739297699226293
  0.9974947343081024  0.1666666753736763  0.1260702719681707
  0.9974947099152129  0.1666666753736763  0.6260702769995027
  0.9974947343081024  0.5000000000054854  0.1260702719681707
  0.9974947099152129  0.5000000000054854  0.6260702769995027
  0.9974947343081024  0.8333333507528380  0.1260702719681707
  0.9974947099152129  0.8333333507528380  0.6260702769995027
  0.0025052995746895  0.1666666753736763  0.3739297542523696
  0.0025053018954145  0.1666666753736763  0.8739297699226293
  0.0025052995746895  0.5000000000054854  0.3739297542523696
  0.0025053018954145  0.5000000000054854  0.8739297699226293
  0.0025052995746895  0.8333333507528380  0.3739297542523696
  0.0025053018954145  0.8333333507528380  0.8739297699226293
  0.8283451565768180 -0.0000000000000000  0.2217219246613022
  0.8283451441617037 -0.0000000000000000  0.7217219825326773
  0.8283451565768180  0.3333333507473526  0.2217219246613022
  0.8283451441617037  0.3333333507473526  0.7217219825326773
  0.8283451565768180  0.6666667014947052  0.2217219246613022
  0.8283451441617037  0.6666667014947052  0.7217219825326773
  0.1716548311219465 -0.0000000000000000  0.2782780910089578
  0.1716548287494514  0.0000000000000000  0.7782780643894618
  0.1716548311219465  0.3333333507473526  0.2782780910089578
  0.1716548287494514  0.3333333507473526  0.7782780643894618
  0.1716548311219465  0.6666667014947052  0.2782780910089578
  0.1716548287494514  0.6666667014947052  0.7782780643894618
  0.3283452149382619  0.1666666753736763  0.2217219246613022
  0.3283452219321056  0.1666666753736763  0.7217219825326773
  0.3283452149382619  0.5000000000054854  0.2217219246613022
  0.3283452219321056  0.5000000000054854  0.7217219825326773
  0.3283452149382619  0.8333333507528380  0.2217219246613022
  0.3283452219321056  0.8333333507528380  0.7217219825326773
  0.6716548603454821  0.1666666753736763  0.2782780910089578
  0.6716548676774660  0.1666666753736763  0.7782780643894618
  0.6716548603454821  0.5000000000054854  0.2782780910089578
  0.6716548676774660  0.5000000000054854  0.7782780643894618
  0.6716548603454821  0.8333333507528380  0.2782780910089578
  0.6716548676774660  0.8333333507528380  0.7782780643894618
 
  0.00000000E+00  0.00000000E+00  0.00000000E+00
  0.00000000E+00  0.00000000E+00  0.00000000E+00
  0.00000000E+00  0.00000000E+00  0.00000000E+00
  0.00000000E+00  0.00000000E+00  0.00000000E+00
  0.00000000E+00  0.00000000E+00  0.00000000E+00
  0.00000000E+00  0.00000000E+00  0.00000000E+00
  0.00000000E+00  0.00000000E+00  0.00000000E+00
  0.00000000E+00  0.00000000E+00  0.00000000E+00
  0.00000000E+00  0.00000000E+00  0.00000000E+00
  0.00000000E+00  0.00000000E+00  0.00000000E+00
  0.00000000E+00  0.00000000E+00  0.00000000E+00
  0.00000000E+00  0.00000000E+00  0.00000000E+00
  0.00000000E+00  0.00000000E+00  0.00000000E+00
  0.00000000E+00  0.00000000E+00  0.00000000E+00
  0.00000000E+00  0.00000000E+00  0.00000000E+00
  0.00000000E+00  0.00000000E+00  0.00000000E+00
  0.00000000E+00  0.00000000E+00  0.00000000E+00
  0.00000000E+00  0.00000000E+00  0.00000000E+00
  0.00000000E+00  0.00000000E+00  0.00000000E+00
  0.00000000E+00  0.00000000E+00  0.00000000E+00
  0.00000000E+00  0.00000000E+00  0.00000000E+00
  0.00000000E+00  0.00000000E+00  0.00000000E+00
  0.00000000E+00  0.00000000E+00  0.00000000E+00
  0.00000000E+00  0.00000000E+00  0.00000000E+00
  0.00000000E+00  0.00000000E+00  0.00000000E+00
  0.00000000E+00  0.00000000E+00  0.00000000E+00
  0.00000000E+00  0.00000000E+00  0.00000000E+00
  0.00000000E+00  0.00000000E+00  0.00000000E+00
  0.00000000E+00  0.00000000E+00  0.00000000E+00
  0.00000000E+00  0.00000000E+00  0.00000000E+00
  0.00000000E+00  0.00000000E+00  0.00000000E+00
  0.00000000E+00  0.00000000E+00  0.00000000E+00
  0.00000000E+00  0.00000000E+00  0.00000000E+00
  0.00000000E+00  0.00000000E+00  0.00000000E+00
  0.00000000E+00  0.00000000E+00  0.00000000E+00
  0.00000000E+00  0.00000000E+00  0.00000000E+00
  0.00000000E+00  0.00000000E+00  0.00000000E+00
  0.00000000E+00  0.00000000E+00  0.00000000E+00
  0.00000000E+00  0.00000000E+00  0.00000000E+00
  0.00000000E+00  0.00000000E+00  0.00000000E+00
  0.00000000E+00  0.00000000E+00  0.00000000E+00
  0.00000000E+00  0.00000000E+00  0.00000000E+00
  0.00000000E+00  0.00000000E+00  0.00000000E+00
  0.00000000E+00  0.00000000E+00  0.00000000E+00
  0.00000000E+00  0.00000000E+00  0.00000000E+00
  0.00000000E+00  0.00000000E+00  0.00000000E+00
  0.00000000E+00  0.00000000E+00  0.00000000E+00
  0.00000000E+00  0.00000000E+00  0.00000000E+00
  0.00000000E+00  0.00000000E+00  0.00000000E+00
  0.00000000E+00  0.00000000E+00  0.00000000E+00
  0.00000000E+00  0.00000000E+00  0.00000000E+00
  0.00000000E+00  0.00000000E+00  0.00000000E+00
  0.00000000E+00  0.00000000E+00  0.00000000E+00
  0.00000000E+00  0.00000000E+00  0.00000000E+00
  0.00000000E+00  0.00000000E+00  0.00000000E+00
  0.00000000E+00  0.00000000E+00  0.00000000E+00
  0.00000000E+00  0.00000000E+00  0.00000000E+00
  0.00000000E+00  0.00000000E+00  0.00000000E+00
  0.00000000E+00  0.00000000E+00  0.00000000E+00
  0.00000000E+00  0.00000000E+00  0.00000000E+00
  0.00000000E+00  0.00000000E+00  0.00000000E+00
  0.00000000E+00  0.00000000E+00  0.00000000E+00
  0.00000000E+00  0.00000000E+00  0.00000000E+00
  0.00000000E+00  0.00000000E+00  0.00000000E+00
  0.00000000E+00  0.00000000E+00  0.00000000E+00
  0.00000000E+00  0.00000000E+00  0.00000000E+00
  0.00000000E+00  0.00000000E+00  0.00000000E+00
  0.00000000E+00  0.00000000E+00  0.00000000E+00
  0.00000000E+00  0.00000000E+00  0.00000000E+00
  0.00000000E+00  0.00000000E+00  0.00000000E+00
  0.00000000E+00  0.00000000E+00  0.00000000E+00
  0.00000000E+00  0.00000000E+00  0.00000000E+00
  0.00000000E+00  0.00000000E+00  0.00000000E+00
  0.00000000E+00  0.00000000E+00  0.00000000E+00
  0.00000000E+00  0.00000000E+00  0.00000000E+00
  0.00000000E+00  0.00000000E+00  0.00000000E+00
  0.00000000E+00  0.00000000E+00  0.00000000E+00
  0.00000000E+00  0.00000000E+00  0.00000000E+00
  0.00000000E+00  0.00000000E+00  0.00000000E+00
  0.00000000E+00  0.00000000E+00  0.00000000E+00
  0.00000000E+00  0.00000000E+00  0.00000000E+00
  0.00000000E+00  0.00000000E+00  0.00000000E+00
  0.00000000E+00  0.00000000E+00  0.00000000E+00
  0.00000000E+00  0.00000000E+00  0.00000000E+00
  0.00000000E+00  0.00000000E+00  0.00000000E+00
  0.00000000E+00  0.00000000E+00  0.00000000E+00
  0.00000000E+00  0.00000000E+00  0.00000000E+00
  0.00000000E+00  0.00000000E+00  0.00000000E+00
  0.00000000E+00  0.00000000E+00  0.00000000E+00
  0.00000000E+00  0.00000000E+00  0.00000000E+00
  0.00000000E+00  0.00000000E+00  0.00000000E+00
  0.00000000E+00  0.00000000E+00  0.00000000E+00
  0.00000000E+00  0.00000000E+00  0.00000000E+00
  0.00000000E+00  0.00000000E+00  0.00000000E+00
  0.00000000E+00  0.00000000E+00  0.00000000E+00
  0.00000000E+00  0.00000000E+00  0.00000000E+00
  0.00000000E+00  0.00000000E+00  0.00000000E+00
  0.00000000E+00  0.00000000E+00  0.00000000E+00
  0.00000000E+00  0.00000000E+00  0.00000000E+00
  0.00000000E+00  0.00000000E+00  0.00000000E+00
  0.00000000E+00  0.00000000E+00  0.00000000E+00
  0.00000000E+00  0.00000000E+00  0.00000000E+00
  0.00000000E+00  0.00000000E+00  0.00000000E+00
  0.00000000E+00  0.00000000E+00  0.00000000E+00
  0.00000000E+00  0.00000000E+00  0.00000000E+00
  0.00000000E+00  0.00000000E+00  0.00000000E+00
  0.00000000E+00  0.00000000E+00  0.00000000E+00
  0.00000000E+00  0.00000000E+00  0.00000000E+00
  0.00000000E+00  0.00000000E+00  0.00000000E+00
  0.00000000E+00  0.00000000E+00  0.00000000E+00
  0.00000000E+00  0.00000000E+00  0.00000000E+00
  0.00000000E+00  0.00000000E+00  0.00000000E+00
  0.00000000E+00  0.00000000E+00  0.00000000E+00
  0.00000000E+00  0.00000000E+00  0.00000000E+00
  0.00000000E+00  0.00000000E+00  0.00000000E+00
  0.00000000E+00  0.00000000E+00  0.00000000E+00
  0.00000000E+00  0.00000000E+00  0.00000000E+00
  0.00000000E+00  0.00000000E+00  0.00000000E+00
  0.00000000E+00  0.00000000E+00  0.00000000E+00
  0.00000000E+00  0.00000000E+00  0.00000000E+00
