Ga  O
1.0
       12.2623767853         0.0000000000         0.0000000000
        0.0000000000         9.1133460999         0.0000000000
       -2.7796338498         0.0000000000        11.2793251325
   Ga    O
   48   72
Cartesian
     0.007959723         0.000000000         4.485156059
    -1.381857276         0.000000000        10.124819756
     0.007959723         3.037782192         4.485156059
    -1.381857276         3.037782192        10.124819756
     0.007959723         6.075564384         4.485156059
    -1.381857276         6.075564384        10.124819756
    10.864600182         0.000000000         1.154506683
     9.474783897         0.000000000         6.794169426
    10.864600182         3.037782192         1.154506683
     9.474783897         3.037782192         6.794169426
    10.864600182         6.075564384         1.154506683
     9.474783897         6.075564384         6.794169426
     6.139147758         1.518891096         4.485156059
     4.749330521         1.518891096        10.124819756
     6.139147758         4.556673050         4.485156059
     4.749330521         4.556673050        10.124819756
     6.139147758         7.594455242         4.485156059
     4.749330521         7.594455242        10.124819756
     4.733412266         1.518891096         1.154506683
     3.343595028         1.518891096         6.794169426
     4.733412266         4.556673050         1.154506683
     3.343595028         4.556673050         6.794169426
     4.733412266         7.594455242         1.154506683
     3.343595028         7.594455242         6.794169426
     3.230085850         0.000000000         3.854850531
     1.840268850         0.000000000         9.494513512
     3.230085850         3.037782192         3.854850531
     1.840268850         3.037782192         9.494513512
     3.230085850         6.075564384         3.854850531
     1.840268850         6.075564384         9.494513512
     7.642474174         0.000000000         1.784812331
     6.252656937         0.000000000         7.424475193
     7.642474174         3.037782192         1.784812331
     6.252656937         3.037782192         7.424475193
     7.642474174         6.075564384         1.784812331
     6.252656937         6.075564384         7.424475193
     9.361273766         1.518891096         3.854850531
     7.971457481         1.518891096         9.494513512
     9.361273766         4.556673050         3.854850531
     7.971457481         4.556673050         9.494513512
     9.361273766         7.594455242         3.854850531
     7.971457481         7.594455242         9.494513512
     1.511285782         1.518891096         1.784812331
     0.121468902         1.518891096         7.424475193
     1.511285782         4.556673050         1.784812331
     0.121468902         4.556673050         7.424475193
     1.511285782         7.594455242         1.784812331
     0.121468902         7.594455242         7.424475193
     1.864057064         0.000000000         0.625004351
     0.474240065         0.000000000         6.264667511
     1.864057064         3.037782192         0.625004351
     0.474240065         3.037782192         6.264667511
     1.864057064         6.075564384         0.625004351
     0.474240065         6.075564384         6.264667511
     9.008502960         0.000000000         5.014658451
     7.618685722         0.000000000        10.654321671
     9.008502960         3.037782192         5.014658451
     7.618685722         3.037782192        10.654321671
     9.008502960         6.075564384         5.014658451
     7.618685722         6.075564384        10.654321671
     7.995245457         1.518891096         0.625004351
     6.605428696         1.518891096         6.264667511
     7.995245457         4.556673050         0.625004351
     6.605428696         4.556673050         6.264667511
     7.995245457         7.594455242         0.625004351
     6.605428696         7.594455242         6.264667511
     2.877314568         1.518891096         5.014658451
     1.487497568         1.518891096        10.654321671
     2.877314568         4.556673050         5.014658451
     1.487497568         4.556673050        10.654321671
     2.877314568         7.594455242         5.014658451
     1.487497568         7.594455242        10.654321671
     5.734189510         0.000000000         1.448795438
     4.344372749         0.000000000         7.088458061
     5.734189510         3.037782192         1.448795438
     4.344372749         3.037782192         7.088458061
     5.734189510         6.075564384         1.448795438
     4.344372749         6.075564384         7.088458061
     5.138370514         0.000000000         4.190867424
     3.748553514         0.000000000         9.830530167
     5.138370514         3.037782192         4.190867424
     3.748553514         3.037782192         9.830530167
     5.138370514         6.075564384         4.190867424
     3.748553514         6.075564384         9.830530167
    11.865378380         1.518891096         1.448795438
    10.475561142         1.518891096         7.088458061
    11.865378380         4.556673050         1.448795438
    10.475561142         4.556673050         7.088458061
    11.865378380         7.594455242         1.448795438
    10.475561142         7.594455242         7.088458061
    -0.992818177         1.518891096         4.190867424
    -2.382635117         1.518891096         9.830530167
    -0.992818177         4.556673050         4.190867424
    -2.382635117         4.556673050         9.830530167
    -0.992818177         7.594455242         4.190867424
    -2.382635117         7.594455242         9.830530167
     9.526163101         0.000000000         2.467685223
     8.136345863         0.000000000         8.107348442
     9.526163101         3.037782192         2.467685223
     8.136345863         3.037782192         8.107348442
     9.526163101         6.075564384         2.467685223
     8.136345863         6.075564384         8.107348442
     1.346396565         0.000000000         3.171977520
    -0.043420315         0.000000000         8.811639786
     1.346396565         3.037782192         3.171977520
    -0.043420315         3.037782192         8.811639786
     1.346396565         6.075564384         3.171977520
    -0.043420315         6.075564384         8.811639786
     3.394975424         1.518891096         2.467685223
     2.005158424         1.518891096         8.107348442
     3.394975424         4.556673050         2.467685223
     2.005158424         4.556673050         8.107348442
     3.394975424         7.594455242         2.467685223
     2.005158424         7.594455242         8.107348442
     7.477585316         1.518891096         3.171977520
     6.087768555         1.518891096         8.811639786
     7.477585316         4.556673050         3.171977520
     6.087768555         4.556673050         8.811639786
     7.477585316         7.594455242         3.171977520
     6.087768555         7.594455242         8.811639786
